p cnf 20 20
-18 -10 7 0
19 -12 -4 0
4 -11 -9 0
16 -7 13 0
10 3 -20 0
3 -18 -17 0
12 4 13 0
9 10 -3 0
-8 1 -13 0
-7 13 -17 0
8 -12 20 0
9 18 3 0
10 11 -11 0
13 -11 15 0
-16 8 -11 0
-16 18 -11 0
-15 10 -10 0
20 5 7 0
16 -7 -13 0
-15 -5 -13 0
